5
5
0 939 271 699 800 
939 0 674 676 769 
271 674 0 593 623 
699 676 593 0 1130 
800 769 623 1130 0 
0 550 360 714 816 
550 0 571 166 962 
360 571 0 693 471 
714 166 693 0 1033 
816 962 471 1033 0 
0 784 288 957 835 
784 0 604 832 644 
288 604 0 1041 881 
957 832 1041 0 189 
835 644 881 189 0 
0 348 717 1010 658 
348 0 527 716 425 
717 527 0 1031 884 
1010 716 1031 0 375 
658 425 884 375 0 
0 541 631 447 782 
541 0 788 645 367 
631 788 0 185 1152 
447 645 185 0 999 
782 367 1152 999 0 
